Academic license - for non-commercial use only - expires 2022-11-10
Using license file /home/benedond/Apps/gurobi/gurobi950/gurobi.lic
Using gurobi.env file
Set parameter Threads to value 1
Changed value of parameter TimeLimit to 1200.0
   Prev: inf  Min: 0.0  Max: inf  Default: inf
Gurobi Optimizer version 9.1.2 build v9.1.2rc0 (linux64)
Thread count: 2 physical cores, 4 logical processors, using up to 1 threads
Optimize a model with 1194 rows, 1083 columns and 5161 nonzeros
Model fingerprint: 0x2d0f00d7
Variable types: 44 continuous, 1039 integer (1039 binary)
Coefficient statistics:
  Matrix range     [2e-01, 4e+02]
  Objective range  [2e-02, 4e-01]
  Bounds range     [1e+00, 1e+00]
  RHS range        [1e+00, 1e+03]
Found heuristic solution: objective 4.5474476
Presolve removed 152 rows and 83 columns
Presolve time: 0.02s
Presolved: 1042 rows, 1000 columns, 4606 nonzeros
Variable types: 43 continuous, 957 integer (957 binary)

Root relaxation: objective 2.094166e+00, 1069 iterations, 0.02 seconds

    Nodes    |    Current Node    |     Objective Bounds      |     Work
 Expl Unexpl |  Obj  Depth IntInf | Incumbent    BestBd   Gap | It/Node Time

     0     0    2.09417    0  120    4.54745    2.09417  53.9%     -    0s
H    0     0                       3.9050096    2.09417  46.4%     -    0s
H    0     0                       3.4817429    2.09417  39.9%     -    0s
H    0     0                       3.1875143    2.09417  34.3%     -    0s
     0     0    2.24630    0  106    3.18751    2.24630  29.5%     -    0s
     0     0    2.26292    0  106    3.18751    2.26292  29.0%     -    0s
     0     0    2.37451    0   91    3.18751    2.37451  25.5%     -    0s
H    0     0                       3.1202572    2.37451  23.9%     -    0s
     0     0    2.39920    0  125    3.12026    2.39920  23.1%     -    0s
     0     0    2.40624    0  136    3.12026    2.40624  22.9%     -    0s
     0     0    2.40794    0  117    3.12026    2.40794  22.8%     -    0s
     0     0    2.40970    0  124    3.12026    2.40970  22.8%     -    0s
     0     0    2.40983    0  123    3.12026    2.40983  22.8%     -    0s
     0     0    2.48082    0  145    3.12026    2.48082  20.5%     -    0s
     0     0    2.50194    0  170    3.12026    2.50194  19.8%     -    0s
     0     0    2.50815    0  155    3.12026    2.50815  19.6%     -    0s
     0     0    2.51064    0  147    3.12026    2.51064  19.5%     -    0s
     0     0    2.51079    0  153    3.12026    2.51079  19.5%     -    0s
     0     0    2.53936    0  125    3.12026    2.53936  18.6%     -    0s
H    0     0                       3.0797334    2.53936  17.5%     -    0s
     0     0    2.54437    0  113    3.07973    2.54437  17.4%     -    0s
     0     0    2.54479    0  132    3.07973    2.54479  17.4%     -    0s
     0     0    2.54508    0  142    3.07973    2.54508  17.4%     -    0s
     0     0    2.55661    0  139    3.07973    2.55661  17.0%     -    0s
     0     0    2.56371    0  160    3.07973    2.56371  16.8%     -    0s
     0     0    2.56502    0  144    3.07973    2.56502  16.7%     -    0s
     0     0    2.56502    0  146    3.07973    2.56502  16.7%     -    0s
     0     0    2.59237    0  139    3.07973    2.59237  15.8%     -    0s
H    0     0                       3.0445810    2.59237  14.9%     -    0s
     0     0    2.59465    0  136    3.04458    2.59465  14.8%     -    0s
     0     0    2.59469    0  131    3.04458    2.59469  14.8%     -    0s
     0     0    2.60192    0  138    3.04458    2.60192  14.5%     -    0s
     0     0    2.60299    0  168    3.04458    2.60299  14.5%     -    0s
     0     0    2.60351    0  162    3.04458    2.60351  14.5%     -    0s
     0     0    2.60377    0  158    3.04458    2.60377  14.5%     -    0s
     0     0    2.61286    0  169    3.04458    2.61286  14.2%     -    0s
     0     0    2.61442    0  139    3.04458    2.61442  14.1%     -    0s
     0     0    2.61487    0  147    3.04458    2.61487  14.1%     -    0s
     0     0    2.62128    0  175    3.04458    2.62128  13.9%     -    0s
     0     0    2.62200    0  128    3.04458    2.62200  13.9%     -    0s
     0     0    2.62209    0  136    3.04458    2.62209  13.9%     -    0s
     0     0    2.62414    0  139    3.04458    2.62414  13.8%     -    1s
     0     0    2.62440    0  168    3.04458    2.62440  13.8%     -    1s
     0     0    2.62749    0  146    3.04458    2.62749  13.7%     -    1s
     0     0    2.62749    0  146    3.04458    2.62749  13.7%     -    1s
H    0     0                       3.0262476    2.62807  13.2%     -    1s
     0     2    2.62807    0  146    3.02625    2.62807  13.2%     -    1s
H  130   118                       3.0236667    2.63387  12.9%   110    2s
H  189   158                       3.0232000    2.64092  12.6%  98.7    3s
H  300   244                       3.0211334    2.64659  12.4%  83.2    3s
   524   392    2.97881   13  164    3.02113    2.65405  12.2%  66.9    5s
   665   486    2.76047   27  224    3.02113    2.73028  9.63%  52.7   11s
H  733   492                       2.9640476    2.73356  7.78%  76.8   13s
*  758   459              63       2.9459429    2.73356  7.21%  74.7   13s
H  795   451                       2.9436476    2.73941  6.94%  79.2   14s
H  822   434                       2.9427714    2.73941  6.91%  80.3   14s
H  848   415                       2.9337619    2.73941  6.62%  80.5   14s
   863   411    2.78182   23  156    2.93376    2.73945  6.62%  81.1   15s
H  979   385                       2.9305048    2.74531  6.32%  84.1   16s
H 1346   451                       2.9234667    2.75775  5.67%  89.1   19s
  1385   449    2.89853   30   88    2.92347    2.76303  5.49%  90.4   20s
H 1613   442                       2.9142762    2.77835  4.66%  89.8   21s
  2225   721    2.81317   26  133    2.91428    2.79705  4.02%  86.2   25s
H 2958   899                       2.9098667    2.81237  3.35%  84.0   28s
  3163   939    2.82967   29  121    2.90987    2.81657  3.21%  84.0   30s
  4017  1081    2.87616   50   59    2.90987    2.83335  2.63%  83.4   35s
  4981  1067     cutoff   35         2.90987    2.84954  2.07%  81.5   40s
  6218   847    2.88369   46   97    2.90987    2.86895  1.41%  77.1   45s

Cutting planes:
  Gomory: 2
  Cover: 47
  Implied bound: 3
  Clique: 8
  MIR: 208
  StrongCG: 3
  Flow cover: 428
  Inf proof: 1
  Mod-K: 2
  RLT: 14
  Relax-and-lift: 124

Explored 7485 nodes (542414 simplex iterations) in 49.10 seconds
Thread count was 1 (of 4 available processors)

Solution count 10: 2.90987 2.91428 2.92347 ... 3.02113

Optimal solution found (tolerance 1.00e-04)
Best objective 2.909866673123e+00, best bound 2.909866673123e+00, gap 0.0000%
